Pt Fe  O 
 1.0000000000000000
    22.1748686580101300    0.0000000000000000    0.0000000000000000
     0.0000000000000000   19.2039995834201136    0.0000000000000000
     0.0000000000000000    0.0000000000000000   13.2632130552233320
 Pt  Fe  O  
 128  15  12
Selective dynamics
Cartesian
  0.0000000000000000  1.6003300000000000  1.0000000000000000   F   F   F
  2.7718600000000002  1.6003300000000000  1.0000000000000000   F   F   F
  5.5437200000000004  1.6003300000000000  1.0000000000000000   F   F   F
  8.3155800000000006  1.6003300000000000  1.0000000000000000   F   F   F
 11.0874299999999995  1.6003300000000000  1.0000000000000000   F   F   F
 13.8592899999999997  1.6003300000000000  1.0000000000000000   F   F   F
 16.6311500000000017  1.6003300000000000  1.0000000000000000   F   F   F
 19.4030099999999983  1.6003300000000000  1.0000000000000000   F   F   F
  1.3859300000000001  4.0008299999999997  1.0000000000000000   F   F   F
  4.1577900000000003  4.0008299999999997  1.0000000000000000   F   F   F
  6.9296499999999996  4.0008299999999997  1.0000000000000000   F   F   F
  9.7015100000000007  4.0008299999999997  1.0000000000000000   F   F   F
 12.4733599999999996  4.0008299999999997  1.0000000000000000   F   F   F
 15.2452199999999998  4.0008299999999997  1.0000000000000000   F   F   F
 18.0170800000000000  4.0008299999999997  1.0000000000000000   F   F   F
 20.7889400000000002  4.0008299999999997  1.0000000000000000   F   F   F
  0.0000000000000000  6.4013299999999997  1.0000000000000000   F   F   F
  2.7718600000000002  6.4013299999999997  1.0000000000000000   F   F   F
  5.5437200000000004  6.4013299999999997  1.0000000000000000   F   F   F
  8.3155800000000006  6.4013299999999997  1.0000000000000000   F   F   F
 11.0874299999999995  6.4013299999999997  1.0000000000000000   F   F   F
 13.8592899999999997  6.4013299999999997  1.0000000000000000   F   F   F
 16.6311500000000017  6.4013299999999997  1.0000000000000000   F   F   F
 19.4030099999999983  6.4013299999999997  1.0000000000000000   F   F   F
  1.3859300000000001  8.8018300000000007  1.0000000000000000   F   F   F
  4.1577900000000003  8.8018300000000007  1.0000000000000000   F   F   F
  6.9296499999999996  8.8018300000000007  1.0000000000000000   F   F   F
  9.7015100000000007  8.8018300000000007  1.0000000000000000   F   F   F
 12.4733599999999996  8.8018300000000007  1.0000000000000000   F   F   F
 15.2452199999999998  8.8018300000000007  1.0000000000000000   F   F   F
 18.0170800000000000  8.8018300000000007  1.0000000000000000   F   F   F
 20.7889400000000002  8.8018300000000007  1.0000000000000000   F   F   F
  0.0000000000000000 11.2023299999999999  1.0000000000000000   F   F   F
  2.7718600000000002 11.2023299999999999  1.0000000000000000   F   F   F
  5.5437200000000004 11.2023299999999999  1.0000000000000000   F   F   F
  8.3155800000000006 11.2023299999999999  1.0000000000000000   F   F   F
 11.0874299999999995 11.2023299999999999  1.0000000000000000   F   F   F
 13.8592899999999997 11.2023299999999999  1.0000000000000000   F   F   F
 16.6311500000000017 11.2023299999999999  1.0000000000000000   F   F   F
 19.4030099999999983 11.2023299999999999  1.0000000000000000   F   F   F
  1.3859300000000001 13.6028300000000009  1.0000000000000000   F   F   F
  4.1577900000000003 13.6028300000000009  1.0000000000000000   F   F   F
  6.9296499999999996 13.6028300000000009  1.0000000000000000   F   F   F
  9.7015100000000007 13.6028300000000009  1.0000000000000000   F   F   F
 12.4733599999999996 13.6028300000000009  1.0000000000000000   F   F   F
 15.2452199999999998 13.6028300000000009  1.0000000000000000   F   F   F
 18.0170800000000000 13.6028300000000009  1.0000000000000000   F   F   F
 20.7889400000000002 13.6028300000000009  1.0000000000000000   F   F   F
  0.0000000000000000 16.0033299999999983  1.0000000000000000   F   F   F
  2.7718600000000002 16.0033299999999983  1.0000000000000000   F   F   F
  5.5437200000000004 16.0033299999999983  1.0000000000000000   F   F   F
  8.3155800000000006 16.0033299999999983  1.0000000000000000   F   F   F
 11.0874299999999995 16.0033299999999983  1.0000000000000000   F   F   F
 13.8592899999999997 16.0033299999999983  1.0000000000000000   F   F   F
 16.6311500000000017 16.0033299999999983  1.0000000000000000   F   F   F
 19.4030099999999983 16.0033299999999983  1.0000000000000000   F   F   F
  1.3859300000000001 18.4038299999999992  1.0000000000000000   F   F   F
  4.1577900000000003 18.4038299999999992  1.0000000000000000   F   F   F
  6.9296499999999996 18.4038299999999992  1.0000000000000000   F   F   F
  9.7015100000000007 18.4038299999999992  1.0000000000000000   F   F   F
 12.4733599999999996 18.4038299999999992  1.0000000000000000   F   F   F
 15.2452199999999998 18.4038299999999992  1.0000000000000000   F   F   F
 18.0170800000000000 18.4038299999999992  1.0000000000000000   F   F   F
 20.7889400000000002 18.4038299999999992  1.0000000000000000   F   F   F
  0.0000000000000000  0.0000000000000000  3.2632099999999999   F   F   F
  2.7718600000000002  0.0000000000000000  3.2632099999999999   F   F   F
  5.5437200000000004  0.0000000000000000  3.2632099999999999   F   F   F
  8.3155800000000006  0.0000000000000000  3.2632099999999999   F   F   F
 11.0874299999999995  0.0000000000000000  3.2632099999999999   F   F   F
 13.8592899999999997  0.0000000000000000  3.2632099999999999   F   F   F
 16.6311500000000017  0.0000000000000000  3.2632099999999999   F   F   F
 19.4030099999999983  0.0000000000000000  3.2632099999999999   F   F   F
  1.3859300000000001  2.4005000000000001  3.2632099999999999   F   F   F
  4.1577900000000003  2.4005000000000001  3.2632099999999999   F   F   F
  6.9296499999999996  2.4005000000000001  3.2632099999999999   F   F   F
  9.7015100000000007  2.4005000000000001  3.2632099999999999   F   F   F
 12.4733599999999996  2.4005000000000001  3.2632099999999999   F   F   F
 15.2452199999999998  2.4005000000000001  3.2632099999999999   F   F   F
 18.0170800000000000  2.4005000000000001  3.2632099999999999   F   F   F
 20.7889400000000002  2.4005000000000001  3.2632099999999999   F   F   F
  0.0000000000000000  4.8010000000000002  3.2632099999999999   F   F   F
  2.7718600000000002  4.8010000000000002  3.2632099999999999   F   F   F
  5.5437200000000004  4.8010000000000002  3.2632099999999999   F   F   F
  8.3155800000000006  4.8010000000000002  3.2632099999999999   F   F   F
 11.0874299999999995  4.8010000000000002  3.2632099999999999   F   F   F
 13.8592899999999997  4.8010000000000002  3.2632099999999999   F   F   F
 16.6311500000000017  4.8010000000000002  3.2632099999999999   F   F   F
 19.4030099999999983  4.8010000000000002  3.2632099999999999   F   F   F
  1.3859300000000001  7.2015000000000002  3.2632099999999999   F   F   F
  4.1577900000000003  7.2015000000000002  3.2632099999999999   F   F   F
  6.9296499999999996  7.2015000000000002  3.2632099999999999   F   F   F
  9.7015100000000007  7.2015000000000002  3.2632099999999999   F   F   F
 12.4733599999999996  7.2015000000000002  3.2632099999999999   F   F   F
 15.2452199999999998  7.2015000000000002  3.2632099999999999   F   F   F
 18.0170800000000000  7.2015000000000002  3.2632099999999999   F   F   F
 20.7889400000000002  7.2015000000000002  3.2632099999999999   F   F   F
  0.0000000000000000  9.6020000000000003  3.2632099999999999   F   F   F
  2.7718600000000002  9.6020000000000003  3.2632099999999999   F   F   F
  5.5437200000000004  9.6020000000000003  3.2632099999999999   F   F   F
  8.3155800000000006  9.6020000000000003  3.2632099999999999   F   F   F
 11.0874299999999995  9.6020000000000003  3.2632099999999999   F   F   F
 13.8592899999999997  9.6020000000000003  3.2632099999999999   F   F   F
 16.6311500000000017  9.6020000000000003  3.2632099999999999   F   F   F
 19.4030099999999983  9.6020000000000003  3.2632099999999999   F   F   F
  1.3859300000000001 12.0024999999999995  3.2632099999999999   F   F   F
  4.1577900000000003 12.0024999999999995  3.2632099999999999   F   F   F
  6.9296499999999996 12.0024999999999995  3.2632099999999999   F   F   F
  9.7015100000000007 12.0024999999999995  3.2632099999999999   F   F   F
 12.4733599999999996 12.0024999999999995  3.2632099999999999   F   F   F
 15.2452199999999998 12.0024999999999995  3.2632099999999999   F   F   F
 18.0170800000000000 12.0024999999999995  3.2632099999999999   F   F   F
 20.7889400000000002 12.0024999999999995  3.2632099999999999   F   F   F
  0.0000000000000000 14.4030000000000005  3.2632099999999999   F   F   F
  2.7718600000000002 14.4030000000000005  3.2632099999999999   F   F   F
  5.5437200000000004 14.4030000000000005  3.2632099999999999   F   F   F
  8.3155800000000006 14.4030000000000005  3.2632099999999999   F   F   F
 11.0874299999999995 14.4030000000000005  3.2632099999999999   F   F   F
 13.8592899999999997 14.4030000000000005  3.2632099999999999   F   F   F
 16.6311500000000017 14.4030000000000005  3.2632099999999999   F   F   F
 19.4030099999999983 14.4030000000000005  3.2632099999999999   F   F   F
  1.3859300000000001 16.8034999999999997  3.2632099999999999   F   F   F
  4.1577900000000003 16.8034999999999997  3.2632099999999999   F   F   F
  6.9296499999999996 16.8034999999999997  3.2632099999999999   F   F   F
  9.7015100000000007 16.8034999999999997  3.2632099999999999   F   F   F
 12.4733599999999996 16.8034999999999997  3.2632099999999999   F   F   F
 15.2452199999999998 16.8034999999999997  3.2632099999999999   F   F   F
 18.0170800000000000 16.8034999999999997  3.2632099999999999   F   F   F
 20.7889400000000002 16.8034999999999997  3.2632099999999999   F   F   F
 16.8169243683922254  6.4632700025809635  5.1717623743130829   T   T   T
 14.1026854487848983  6.5042163112475242  5.6200782829809848   T   T   T
 15.2241732440822233  4.0462730590486444  5.3759628396399055   T   T   T
 12.6488529458312300  3.8979858954883380  5.5685247895068342   T   T   T
 13.8319133879676084  1.3983510716335592  5.2063814523076619   T   T   T
 11.0590646348243418  1.4586670341998800  5.3442926397217310   T   T   T
  9.6183054546201827  3.9350606741426661  5.5277207988514556   T   T   T
  8.3879255774186845  1.4056175681542313  5.3087707222234677   T   T   T
 11.0651686061912020  6.4697163539073115  5.4652658898596762   T   T   T
 12.6430148633696380  8.8691547797863777  5.3159625156978221   T   T   T
  9.6536804481035201  8.8463174463521579  5.2967319966789228   T   T   T
  6.6631448859754396  8.8037833401867065  5.3237391254424216   T   T   T
  5.4111220977609165  6.6142558049276623  5.3265762169981192   T   T   T
  8.1482131391169457  6.4726226205108848  5.5162622978865983   T   T   T
  6.8959034819353144  3.9975008188265426  5.2976977255225330   T   T   T
 13.9554946604191041  8.1895485975768700  6.2856137005709956   T   T   T
 14.1701090925077473  2.7935505056613930  6.3550468144715282   T   T   T
 15.6786735554645311  5.6561155849045734  6.3569125500317112   T   T   T
 12.5752280491817316  5.6083380665971010  6.3403515606447751   T   T   T
 11.1588279510160397  3.0077297733616275  6.3241635642973719   T   T   T
  7.9828900770472302  2.9088379701157288  6.3036709831374074   T   T   T
  9.7366573479084657  0.5021686133361400  6.0993541605575707   T   T   T
  9.6278375650784760  5.6294507014954087  6.4226605716865039   T   T   T
  5.2173690348862216  8.1809683659676260  6.1841429289126033   T   T   T
  6.5105238910916032  5.5030577357487509  6.3035777692512589   T   T   T
  8.1669171264529954  8.3933863757240079  6.3030485361978448   T   T   T
 11.1248817042610320  8.4100737493225459  6.2911371651778616   T   T   T
