Pt 
 1.0000000000000000
    22.1748686580101300    0.0000000000000000    0.0000000000000000
     0.0000000000000000   19.2039995834201136    0.0000000000000000
     0.0000000000000000    0.0000000000000000   13.2632130552233320
Pt Fe O 
128 15 12 
Selective dynamics
Cartesian
0.00000  1.60033  1.00000    F  F  F
2.77186  1.60033  1.00000    F  F  F
5.54372  1.60033  1.00000    F  F  F
8.31558  1.60033  1.00000    F  F  F
11.08743  1.60033  1.00000    F  F  F
13.85929  1.60033  1.00000    F  F  F
16.63115  1.60033  1.00000    F  F  F
19.40301  1.60033  1.00000    F  F  F
1.38593  4.00083  1.00000    F  F  F
4.15779  4.00083  1.00000    F  F  F
6.92965  4.00083  1.00000    F  F  F
9.70151  4.00083  1.00000    F  F  F
12.47336  4.00083  1.00000    F  F  F
15.24522  4.00083  1.00000    F  F  F
18.01708  4.00083  1.00000    F  F  F
20.78894  4.00083  1.00000    F  F  F
0.00000  6.40133  1.00000    F  F  F
2.77186  6.40133  1.00000    F  F  F
5.54372  6.40133  1.00000    F  F  F
8.31558  6.40133  1.00000    F  F  F
11.08743  6.40133  1.00000    F  F  F
13.85929  6.40133  1.00000    F  F  F
16.63115  6.40133  1.00000    F  F  F
19.40301  6.40133  1.00000    F  F  F
1.38593  8.80183  1.00000    F  F  F
4.15779  8.80183  1.00000    F  F  F
6.92965  8.80183  1.00000    F  F  F
9.70151  8.80183  1.00000    F  F  F
12.47336  8.80183  1.00000    F  F  F
15.24522  8.80183  1.00000    F  F  F
18.01708  8.80183  1.00000    F  F  F
20.78894  8.80183  1.00000    F  F  F
0.00000  11.20233  1.00000    F  F  F
2.77186  11.20233  1.00000    F  F  F
5.54372  11.20233  1.00000    F  F  F
8.31558  11.20233  1.00000    F  F  F
11.08743  11.20233  1.00000    F  F  F
13.85929  11.20233  1.00000    F  F  F
16.63115  11.20233  1.00000    F  F  F
19.40301  11.20233  1.00000    F  F  F
1.38593  13.60283  1.00000    F  F  F
4.15779  13.60283  1.00000    F  F  F
6.92965  13.60283  1.00000    F  F  F
9.70151  13.60283  1.00000    F  F  F
12.47336  13.60283  1.00000    F  F  F
15.24522  13.60283  1.00000    F  F  F
18.01708  13.60283  1.00000    F  F  F
20.78894  13.60283  1.00000    F  F  F
0.00000  16.00333  1.00000    F  F  F
2.77186  16.00333  1.00000    F  F  F
5.54372  16.00333  1.00000    F  F  F
8.31558  16.00333  1.00000    F  F  F
11.08743  16.00333  1.00000    F  F  F
13.85929  16.00333  1.00000    F  F  F
16.63115  16.00333  1.00000    F  F  F
19.40301  16.00333  1.00000    F  F  F
1.38593  18.40383  1.00000    F  F  F
4.15779  18.40383  1.00000    F  F  F
6.92965  18.40383  1.00000    F  F  F
9.70151  18.40383  1.00000    F  F  F
12.47336  18.40383  1.00000    F  F  F
15.24522  18.40383  1.00000    F  F  F
18.01708  18.40383  1.00000    F  F  F
20.78894  18.40383  1.00000    F  F  F
0.00000  0.00000  3.26321    F  F  F
2.77186  0.00000  3.26321    F  F  F
5.54372  0.00000  3.26321    F  F  F
8.31558  0.00000  3.26321    F  F  F
11.08743  0.00000  3.26321    F  F  F
13.85929  0.00000  3.26321    F  F  F
16.63115  0.00000  3.26321    F  F  F
19.40301  0.00000  3.26321    F  F  F
1.38593  2.40050  3.26321    F  F  F
4.15779  2.40050  3.26321    F  F  F
6.92965  2.40050  3.26321    F  F  F
9.70151  2.40050  3.26321    F  F  F
12.47336  2.40050  3.26321    F  F  F
15.24522  2.40050  3.26321    F  F  F
18.01708  2.40050  3.26321    F  F  F
20.78894  2.40050  3.26321    F  F  F
0.00000  4.80100  3.26321    F  F  F
2.77186  4.80100  3.26321    F  F  F
5.54372  4.80100  3.26321    F  F  F
8.31558  4.80100  3.26321    F  F  F
11.08743  4.80100  3.26321    F  F  F
13.85929  4.80100  3.26321    F  F  F
16.63115  4.80100  3.26321    F  F  F
19.40301  4.80100  3.26321    F  F  F
1.38593  7.20150  3.26321    F  F  F
4.15779  7.20150  3.26321    F  F  F
6.92965  7.20150  3.26321    F  F  F
9.70151  7.20150  3.26321    F  F  F
12.47336  7.20150  3.26321    F  F  F
15.24522  7.20150  3.26321    F  F  F
18.01708  7.20150  3.26321    F  F  F
20.78894  7.20150  3.26321    F  F  F
0.00000  9.60200  3.26321    F  F  F
2.77186  9.60200  3.26321    F  F  F
5.54372  9.60200  3.26321    F  F  F
8.31558  9.60200  3.26321    F  F  F
11.08743  9.60200  3.26321    F  F  F
13.85929  9.60200  3.26321    F  F  F
16.63115  9.60200  3.26321    F  F  F
19.40301  9.60200  3.26321    F  F  F
1.38593  12.00250  3.26321    F  F  F
4.15779  12.00250  3.26321    F  F  F
6.92965  12.00250  3.26321    F  F  F
9.70151  12.00250  3.26321    F  F  F
12.47336  12.00250  3.26321    F  F  F
15.24522  12.00250  3.26321    F  F  F
18.01708  12.00250  3.26321    F  F  F
20.78894  12.00250  3.26321    F  F  F
0.00000  14.40300  3.26321    F  F  F
2.77186  14.40300  3.26321    F  F  F
5.54372  14.40300  3.26321    F  F  F
8.31558  14.40300  3.26321    F  F  F
11.08743  14.40300  3.26321    F  F  F
13.85929  14.40300  3.26321    F  F  F
16.63115  14.40300  3.26321    F  F  F
19.40301  14.40300  3.26321    F  F  F
1.38593  16.80350  3.26321    F  F  F
4.15779  16.80350  3.26321    F  F  F
6.92965  16.80350  3.26321    F  F  F
9.70151  16.80350  3.26321    F  F  F
12.47336  16.80350  3.26321    F  F  F
15.24522  16.80350  3.26321    F  F  F
18.01708  16.80350  3.26321    F  F  F
20.78894  16.80350  3.26321    F  F  F
16.72892  6.44380  5.19048    T  T  T
14.12180  6.56251  5.59417    T  T  T
15.27693  4.01640  5.34987    T  T  T
12.57845  3.91965  5.56254    T  T  T
13.88667  1.49626  5.20798    T  T  T
11.03038  1.37205  5.34163    T  T  T
9.63525  3.90826  5.57565    T  T  T
8.34042  1.36434  5.34235    T  T  T
11.11260  6.47236  5.55815    T  T  T
12.64329  8.88520  5.32140    T  T  T
9.66203  8.85236  5.30227    T  T  T
6.66631  8.85027  5.36789    T  T  T
5.36960  6.59655  5.37183    T  T  T
8.13626  6.48733  5.57527    T  T  T
6.86038  3.98166  5.30744    T  T  T
13.99343  8.22977  6.24992    T  T  T
14.08386  2.93704  6.33843    T  T  T
15.63368  5.57104  6.37431    T  T  T
12.54878  5.59612  6.27803    T  T  T
11.18680  3.03983  6.28625    T  T  T
8.03170  2.98512  6.25644    T  T  T
9.69111  0.51879  6.13972    T  T  T
9.66484  5.60703  6.28520    T  T  T
5.26462  8.15907  6.20406    T  T  T
6.55382  5.47183  6.28216    T  T  T
8.22121  8.36382  6.28369    T  T  T
11.09067  8.29438  6.25648    T  T  T
