Cu Ce  O 
 1.0000000000000000
    15.3045997620000005    0.0000000000000000    0.0000000000000000
    -7.6522998810000002   13.2541721886000001    0.0000000000000000
     0.0000000000000000    0.0000000000000000   17.5620002747000008
 Cu  Ce  O  
   8  16  32
Selective dynamics
Cartesian
  1.1610273288454251  8.9510040623583702  3.3804794175260882   T   T   T
 -1.6858818037215553  8.7753418036925197  3.2165507462928828   T   T   T
 -0.4160521520388722  6.6967119070058834  3.3127838331979911   T   T   T
  3.6697644869419497  8.7616739163169957  3.2702657680093861   T   T   T
  0.9226710727030223  6.1542264235933404  5.2147494185129091   T   T   T
  2.3184983337602931  8.1483110547139717  5.2001841055310463   T   T   T
 -0.2611248356709172  8.3041288389736074  5.0976690638747941   T   T   T
  2.3327792269319421  6.6666401544801364  3.3178925697214496   T   T   T
  0.9564600000000000  0.5523000000000000  0.7810100000000000   F   F   F
  4.7826100000000000  0.5523000000000000  0.7810100000000000   F   F   F
  8.6087600000000002  0.5523000000000000  0.7810100000000000   F   F   F
 12.4349100000000004  0.5523000000000000  0.7810100000000000   F   F   F
 -0.9566100000000000  3.8658399999999999  0.7810100000000000   F   F   F
  2.8695400000000002  3.8658399999999999  0.7810100000000000   F   F   F
  6.6956899999999999  3.8658399999999999  0.7810100000000000   F   F   F
 10.5218399999999992  3.8658399999999999  0.7810100000000000   F   F   F
 -2.8696899999999999  7.1793899999999997  0.7810100000000000   F   F   F
  0.9564600000000000  7.1793899999999997  0.7810100000000000   F   F   F
  4.7826100000000000  7.1793899999999997  0.7810100000000000   F   F   F
  8.6087600000000002  7.1793899999999997  0.7810100000000000   F   F   F
 -4.7827599999999997 10.4929299999999994  0.7810100000000000   F   F   F
 -0.9566100000000000 10.4929299999999994  0.7810100000000000   F   F   F
  2.8695300000000001 10.4929299999999994  0.7810100000000000   F   F   F
  6.6956800000000003 10.4929299999999994  0.7810100000000000   F   F   F
 12.4350600000000000  2.7612399999999999  1.5620300000000000   F   F   F
 12.4349900000000009  4.9703099999999996  0.0000000000000000   F   F   F
 -0.9564600000000000  6.0747799999999996  1.5620300000000000   F   F   F
  0.9565399999999999  4.9703099999999996  0.0000000000000000   F   F   F
  2.8696899999999999  6.0747799999999996  1.5620300000000000   F   F   F
  4.7826899999999997  4.9703099999999996  0.0000000000000000   F   F   F
  6.6958399999999996  6.0747799999999996  1.5620300000000000   F   F   F
  8.6088400000000007  4.9703099999999996  0.0000000000000000   F   F   F
 10.5219900000000006  6.0747799999999996  1.5620300000000000   F   F   F
 -4.7826899999999997  8.2838600000000007  0.0000000000000000   F   F   F
 -2.8695400000000002  9.3883299999999998  1.5620300000000000   F   F   F
 -0.9565399999999999  8.2838600000000007  0.0000000000000000   F   F   F
  0.9566100000000000  9.3883299999999998  1.5620300000000000   F   F   F
  2.8696100000000002  8.2838600000000007  0.0000000000000000   F   F   F
  4.7827599999999997  9.3883299999999998  1.5620300000000000   F   F   F
  6.6957599999999999  8.2838600000000007  0.0000000000000000   F   F   F
  8.6089199999999995  9.3883299999999998  1.5620300000000000   F   F   F
  8.6088400000000007 11.5974000000000004  0.0000000000000000   F   F   F
 -4.7826100000000000 12.7018699999999995  1.5620300000000000   F   F   F
 -2.8696100000000002 11.5974000000000004  0.0000000000000000   F   F   F
 -0.9565399999999999  1.6567700000000001  0.0000000000000000   F   F   F
 -0.9564600000000000 12.7018699999999995  1.5620300000000000   F   F   F
  0.9565399999999999 11.5974000000000004  0.0000000000000000   F   F   F
  2.8696899999999999 12.7018699999999995  1.5620300000000000   F   F   F
  4.7826899999999997 11.5974000000000004  0.0000000000000000   F   F   F
  6.6958399999999996 12.7018699999999995  1.5620300000000000   F   F   F
  0.9566100000000000  2.7612399999999999  1.5620300000000000   F   F   F
  2.8696100000000002  1.6567700000000001  0.0000000000000000   F   F   F
  4.7827599999999997  2.7612399999999999  1.5620300000000000   F   F   F
  6.6957599999999999  1.6567700000000001  0.0000000000000000   F   F   F
  8.6089099999999998  2.7612399999999999  1.5620300000000000   F   F   F
 10.5219100000000001  1.6567700000000001  0.0000000000000000   F   F   F
